100 100
98 96 1
78 8 1
46 9 1
99 91 1
71 74 1
82 52 1
75 93 1
68 91 1
7 15 1
58 58 1
66 90 1
66 4 1
53 67 1
96 76 1
69 98 1
94 77 1
62 81 1
95 55 1
84 67 1
99 61 1
83 56 1
6 98 1
60 99 1
76 9 1
16 96 1
78 99 1
99 92 1
94 67 1
59 93 1
62 63 1
48 98 1
34 38 1
64 53 1
58 90 1
10 75 1
90 20 1
82 76 1
77 27 1
82 92 1
99 62 1
11 10 1
85 76 1
67 81 1
74 68 1
50 55 1
66 88 1
63 83 1
60 85 1
53 62 1
58 60 1
71 96 1
59 63 1
67 82 1
13 97 1
91 70 1
20 68 1
93 62 1
79 91 1
72 57 1
91 55 1
30 5 1
56 99 1
65 55 1
74 69 1
78 58 1
96 67 1
20 76 1
69 94 1
89 74 1
97 99 1
91 37 1
27 87 1
61 51 1
72 42 1
64 69 1
95 79 1
97 41 1
83 96 1
4 15 1
75 90 1
90 91 1
69 61 1
54 70 1
66 61 1
98 53 1
17 40 1
68 89 1
70 95 1
66 77 1
76 79 1
43 19 1
85 90 1
98 13 1
47 86 1
79 60 1
73 48 1
89 60 1
79 93 1
27 75 1
100 16 1
100 100 
100 100 
100 100 
100 100 
100 100 
100 100 
100 100 
100 100 
100 100 
100 100 
100 100 
100 100 
100 100 
100 100 
100 100 
100 100 
100 100 
100 100 
100 100 
100 100 
100 100 
100 100 
100 100 
100 100 
100 100 
100 100 
100 100 
100 100 
100 100 
100 100 
100 100 
100 100 
100 100 
100 100 
100 100 
100 100 
100 100 
100 100 
100 100 
100 100 
100 100 
100 100 
100 100 
100 100 
100 100 
100 100 
100 100 
100 100 
100 100 
100 100 
100 100 
100 100 
100 100 
100 100 
100 100 
100 100 
100 100 
100 100 
100 100 
100 100 
100 100 
100 100 
100 100 
100 100 
100 100 
100 100 
100 100 
100 100 
100 100 
100 100 
100 100 
100 100 
100 100 
100 100 
100 100 
100 100 
100 100 
100 100 
100 100 
100 100 
100 100 
100 100 
100 100 
100 100 
100 100 
100 100 
100 100 
100 100 
100 100 
100 100 
100 100 
100 100 
100 100 
100 100 
100 100 
100 100 
100 100 
100 100 
100 100 
100 100 
